# Use a FF with constant input to connect a clock signal (frequency divided by 2) from a global network to datapath
# Use an external signal to enable the clock signal
.model clk_gate
.inputs clk_i data_i
.outputs data_o

.names $true
1

.names $true ff_i
1 1

.names ff_o data_i data_o
11 1

.latch ff_i ff_o re clk_o 0 

.end
